NAME: set1_case2_21_20
COMMENT: 1206
VEHICLE: 29
TIME: 600
DIMENSION: 20
CAPACITY: 10
DELIVERY_SECTION
0 0 0
1 1 2
2 1 2
3 1 1
4 2 2
5 2 2
6 2 1
7 3 2
8 3 2
9 3 1
10 4 2
11 4 2
12 4 1
13 5 2
14 5 2
15 5 1
16 6 2
17 6 2
18 6 1
19 7 2
20 7 2
21 7 1
22 8 2
23 8 2
24 8 1
25 9 2
26 9 2
27 9 1
28 10 2
29 10 2
30 10 1
31 11 2
32 11 2
33 11 1
34 12 2
35 12 2
36 12 1
37 13 2
38 13 2
39 13 1
40 14 2
41 14 2
42 14 1
43 15 2
44 15 2
45 15 1
46 16 2
47 16 2
48 16 1
49 17 2
50 17 2
51 17 1
52 18 2
53 18 2
54 18 1
55 19 2
56 19 2
57 19 1
PICKUP_SECTION
0 0 0
1 1 2
2 1 2
3 1 2
4 1 2
5 1 2
6 1 2
7 1 2
8 1 1
9 2 2
10 2 2
11 2 2
12 2 2
13 2 2
14 2 2
15 2 2
16 2 1
17 3 2
18 3 2
19 3 2
20 3 2
21 3 2
22 3 2
23 3 2
24 3 1
25 4 2
26 4 2
27 4 2
28 4 2
29 4 2
30 4 2
31 4 2
32 4 1
33 5 2
34 5 2
35 5 2
36 5 2
37 5 2
38 5 2
39 5 2
40 5 1
41 6 2
42 6 2
43 6 2
44 6 2
45 6 2
46 6 2
47 6 2
48 6 1
49 7 2
50 7 2
51 7 2
52 7 2
53 7 2
54 7 2
55 7 2
56 7 1
57 8 2
58 8 2
59 8 2
60 8 2
61 8 2
62 8 2
63 8 2
64 8 1
65 9 2
66 9 2
67 9 2
68 9 2
69 9 2
70 9 2
71 9 2
72 9 1
73 10 2
74 10 2
75 10 2
76 10 2
77 10 2
78 10 2
79 10 2
80 10 1
81 11 2
82 11 2
83 11 2
84 11 2
85 11 2
86 11 2
87 11 2
88 11 1
89 12 2
90 12 2
91 12 2
92 12 2
93 12 2
94 12 2
95 12 2
96 12 1
97 13 2
98 13 2
99 13 2
100 13 2
101 13 2
102 13 2
103 13 2
104 13 1
105 14 2
106 14 2
107 14 2
108 14 2
109 14 2
110 14 2
111 14 2
112 14 1
113 15 2
114 15 2
115 15 2
116 15 2
117 15 2
118 15 2
119 15 2
120 15 1
121 16 2
122 16 2
123 16 2
124 16 2
125 16 2
126 16 2
127 16 2
128 16 1
129 17 2
130 17 2
131 17 2
132 17 2
133 17 2
134 17 2
135 17 2
136 17 1
137 18 2
138 18 2
139 18 2
140 18 2
141 18 2
142 18 2
143 18 2
144 18 1
145 19 2
146 19 2
147 19 2
148 19 2
149 19 2
150 19 2
151 19 2
152 19 1
NODE_SECTION
DISTANCE_SECTION
10 11 12 13 14 15 16 17 18 19 20 21 22 23 24 25 26 27 28 
10 11 12 13 14 15 16 17 18 19 20 21 22 23 24 25 26 27 
10 11 12 13 14 15 16 17 18 19 20 21 22 23 24 25 26 
10 11 12 13 14 15 16 17 18 19 20 21 22 23 24 25 
10 11 12 13 14 15 16 17 18 19 20 21 22 23 24 
10 11 12 13 14 15 16 17 18 19 20 21 22 23 
10 11 12 13 14 15 16 17 18 19 20 21 22 
10 11 12 13 14 15 16 17 18 19 20 21 
10 11 12 13 14 15 16 17 18 19 20 
10 11 12 13 14 15 16 17 18 19 
10 11 12 13 14 15 16 17 18 
10 11 12 13 14 15 16 17 
10 11 12 13 14 15 16 
10 11 12 13 14 15 
10 11 12 13 14 
10 11 12 13 
10 11 12 
10 11 
10 
DEPOT_SECTION
0
EOF